NAME : single
TYPE : ATSP
DIMENSION : 12
EDGE_WEIGHT_TYPE : EXPLICIT
EDGE_WEIGHT_FORMAT : FULL_MATRIX
EDGE_WEIGHT_SECTION
0 50451 1170 50461 50464 50457 767 660 682 528 297 136 
0 0 121 218 309 154 240 416 376 535 735 721 
0 121 0 260 267 96 248 476 50000 513 755 750 
0 218 260 0 274 50000 473 670 50000 715 947 902 
0 309 267 274 0 414 581 757 717 834 50000 1101 
0 154 96 50000 414 0 159 390 50000 432 50000 619 
0 240 248 473 581 159 0 207 168 272 449 449 
0 416 476 670 757 390 207 0 212 169 338 356 
0 376 50000 50000 717 50000 168 212 0 180 373 379 
0 535 513 715 834 432 272 169 180 0 223 179 
0 735 755 947 50000 50000 449 338 373 223 0 193 
0 721 750 902 1101 619 449 356 379 179 193 0 
EOF